33D32945 STP File, STP Format Version 1.0

SECTION Comments
Name "cube"
Problem "Euclidean Steiner Tree Problem"
Remark "Converted automatically"
END

SECTION Graph
Nodes 8
END

SECTION Coordinates
DDD 1 0.00000000000000 0.00000000000000 0.00000000000000 
DDD 2 0.00000000000000 0.00000000000000 1.00000000000000 
DDD 3 0.00000000000000 1.00000000000000 0.00000000000000 
DDD 4 0.00000000000000 1.00000000000000 1.00000000000000 
DDD 5 1.00000000000000 0.00000000000000 0.00000000000000 
DDD 6 1.00000000000000 0.00000000000000 1.00000000000000 
DDD 7 1.00000000000000 1.00000000000000 0.00000000000000 
DDD 8 1.00000000000000 1.00000000000000 1.00000000000000 
END

EOF
